81
5
0 5 7 8 9 10 14 16 17 20 23 24 25 27 29 30 31 32 33 34 36 39 42 43 48 52 53 54 56 57 62 63 65 66 67 68 71 72 73 74 75 78 79 80
1 6 8 9 10 11 13 16 20 21 22 23 25 27 29 31 32 34 38 42 45 47 48 49 50 52 53 54 55 56 57 58 59 60 63 64 66 68 69 70 72 73 74 75 77 79
2 7 8 9 11 15 19 21 23 24 26 32 34 35 36 38 39 43 44 48 51 57 60 61 68 70 71 72 73 75 78 80
3 5 6 8 10 11 12 13 16 17 18 19 24 26 27 32 33 36 37 40 45 46 47 49 50 63 64 66 74 76 78
4 18 28 31 41 43 45 57 59 60 62 68 74
